language ESSENCE' 1.0
letting lastdx=92
letting cage be [
[32,2,10,3,10,3,11,0,0, 0,0],
[9,14,2,0,0, 0,0, 0,0, 0,0],
[57,6,3,6,2,6,1,7,1,8,1],
[11,2,7,0,0, 0,0, 0,0, 0,0],
[52,3,6,3,7,3,8,2,8,1,8],
[42,12,5,11,5,11,6,0,0, 0,0],
[22,4,11,4,10,0,0, 0,0, 0,0],
[7,3,5,0,0, 0,0, 0,0, 0,0],
[6,10,8,0,0, 0,0, 0,0, 0,0],
[22,16,7,15,7,0,0, 0,0, 0,0],
[36,16,5,15,5,14,5,13,5,0,0],
[18,12,12,11,12,11,11,0,0, 0,0],
[12,14,8,0,0, 0,0, 0,0, 0,0],
[38,10,15,11,15,12,15,12,14,12,13],
[10,13,9,0,0, 0,0, 0,0, 0,0],
[27,3,12,4,12,5,12,6,12,0,0],
[15,16,12,0,0, 0,0, 0,0, 0,0],
[50,9,11,9,10,8,10,7,10,0,0],
[41,8,13,8,14,9,14,9,13,9,15],
[20,12,2,11,2,0,0, 0,0, 0,0],
[24,4,4,5,4,5,5,0,0, 0,0],
[35,6,14,6,13,7,13,0,0, 0,0],
[25,2,15,3,15,3,16,0,0, 0,0],
[48,5,14,5,13,4,13,3,13,2,13],
[44,4,16,5,16,6,16,7,16,0,0],
[39,16,13,16,14,16,15,16,16,15,16],
[9,3,9,0,0, 0,0, 0,0, 0,0],
[18,3,2,2,2,0,0, 0,0, 0,0],
[15,14,1,0,0, 0,0, 0,0, 0,0],
[42,16,10,16,9,16,8,15,8,0,0],
[13,1,3,1,4,1,5,0,0, 0,0],
[44,13,1,13,2,13,3,14,3,14,4],
[33,10,10,10,11,10,9,9,9,0,0],
[9,1,6,1,7,0,0, 0,0, 0,0],
[14,2,4,0,0, 0,0, 0,0, 0,0],
[35,14,16,13,16,13,15,13,14,14,14],
[21,7,14,7,15,8,15,8,16,0,0],
[5,12,16,0,0, 0,0, 0,0, 0,0],
[29,11,1,12,1,0,0, 0,0, 0,0],
[41,6,15,5,15,4,15,4,14,3,14],
[31,9,2,8,2,8,3,0,0, 0,0],
[26,9,8,9,7,10,7,0,0, 0,0],
[16,7,8,7,7,0,0, 0,0, 0,0],
[5,9,1,0,0, 0,0, 0,0, 0,0],
[23,7,11,7,12,8,11,0,0, 0,0],
[17,2,6,2,5,0,0, 0,0, 0,0],
[31,8,7,8,6,7,6,6,6,6,5],
[22,2,11,1,11,1,10,0,0, 0,0],
[17,6,8,6,9,6,10,6,11,0,0],
[39,8,9,7,9,8,8,0,0, 0,0],
[21,10,1,10,2,10,3,0,0, 0,0],
[16,1,1,1,2,0,0, 0,0, 0,0],
[32,7,2,7,3,7,4,6,4,7,5],
[18,4,9,4,8,0,0, 0,0, 0,0],
[5,15,3,0,0, 0,0, 0,0, 0,0],
[8,15,13,0,0, 0,0, 0,0, 0,0],
[54,3,4,3,3,2,3,4,3,5,3],
[4,11,8,0,0, 0,0, 0,0, 0,0],
[49,12,4,13,4,11,4,10,4,10,5],
[26,1,15,1,16,2,16,0,0, 0,0],
[37,15,14,15,15,14,15,0,0, 0,0],
[22,16,2,16,1,15,1,15,2,0,0],
[16,12,10,0,0, 0,0, 0,0, 0,0],
[2,4,5,0,0, 0,0, 0,0, 0,0],
[1,11,16,0,0, 0,0, 0,0, 0,0],
[17,15,6,16,6,0,0, 0,0, 0,0],
[5,14,10,0,0, 0,0, 0,0, 0,0],
[41,13,10,13,11,12,11,14,11,14,12],
[15,2,14,0,0, 0,0, 0,0, 0,0],
[26,13,6,14,6,14,7,0,0, 0,0],
[13,9,5,9,6,10,6,0,0, 0,0],
[8,11,10,11,9,12,9,0,0, 0,0],
[20,9,16,10,16,0,0, 0,0, 0,0],
[24,15,11,15,12,16,11,0,0, 0,0],
[19,1,9,2,9,0,0, 0,0, 0,0],
[18,1,12,2,12,0,0, 0,0, 0,0],
[12,1,13,1,14,0,0, 0,0, 0,0],
[3,2,1,0,0, 0,0, 0,0, 0,0],
[28,3,1,4,1,4,2,0,0, 0,0],
[13,5,1,5,2,0,0, 0,0, 0,0],
[24,5,8,5,9,5,10,5,11,0,0],
[12,8,4,0,0, 0,0, 0,0, 0,0],
[22,10,14,11,14,0,0, 0,0, 0,0],
[13,11,3,12,3,0,0, 0,0, 0,0],
[10,11,7,0,0, 0,0, 0,0, 0,0],
[23,12,6,12,7,0,0, 0,0, 0,0],
[7,12,8,0,0, 0,0, 0,0, 0,0],
[7,13,7,13,8,0,0, 0,0, 0,0],
[30,13,12,13,13,14,13,0,0, 0,0],
[11,14,9,0,0, 0,0, 0,0, 0,0],
[13,15,4,0,0, 0,0, 0,0, 0,0],
[6,15,9,15,10,0,0, 0,0, 0,0],
[12,16,3,16,4,0,0, 0,0, 0,0]
]
